p tdp 112 111
95 24
87 84
68 78
80 88
108 106
55 25
51 1
20 5
83 46
16 38
94 52
17 28
8 72
95 44
100 2
90 44
11 71
11 89
38 61
49 99
76 96
70 90
107 106
24 92
13 45
103 8
59 71
76 91
99 82
48 27
109 87
101 50
8 38
86 13
74 21
31 50
105 51
36 32
75 62
74 77
39 48
18 73
26 94
75 10
26 104
40 104
64 31
45 20
24 79
111 13
97 75
25 47
79 88
104 37
29 41
51 3
62 39
98 63
17 42
23 102
59 8
54 51
28 21
69 48
40 25
56 81
112 60
7 58
33 93
12 49
65 109
81 2
8 85
90 67
110 39
82 63
106 35
100 112
53 86
83 66
19 37
54 102
58 31
8 4
9 29
32 78
54 4
22 34
16 17
73 78
31 5
65 15
33 37
43 34
68 19
30 81
86 92
82 57
13 60
46 12
8 82
46 107
6 101
96 41
2 87
37 14
22 96
17 37
6 18
109 29
78 10
